(set-info :smt-lib-version 2.6)
(set-logic QF_FP)
(set-info :source |Random FP created by PyMPF|)
(set-info :license |https://www.gnu.org/licenses/gpl-3.0.html|)
(set-info :category random)
(set-info :status unsat)
(declare-const x Float32)
(assert (= x (fp #b1 #b00000000 #b00000000000000000000001)))
;; x should be Float32(0x80000001 [Rational(-1, 713623846352979940529142984724747568191373312), -0.000000])

(declare-const y Float32)
(assert (= y (fp #b1 #b10010101 #b10010011111000011011011)))
;; y should be Float32(0xCAC9F0DB [Rational(-13234395, 2), -6617197.500000])

(declare-const z Float32)
(assert (= z (fp #b0 #b10010100 #b01010110110011100001010)))
;; z should be Float32(0x4A2B670A [Rational(5616517, 2), 2808258.500000])

(declare-const result Float32)
(assert (= result (fp.fma RNE x y z)))
(assert (not (= result ((_ to_fp 8 24) #x4A2B670A))))
(check-sat)
(exit)
